
Gurobi 9.5.2 (win64) logging started Mon Mar 27 20:27:42 2023

Set parameter LogFile to value "2023-03-27_20hr-25min-09sec/Nodes30_Arcs55_LocNodes22/Formulation-2Instance-4.log"
Set parameter TimeLimit to value 600
Set parameter IntFeasTol to value 1e-09
Set parameter DualReductions to value 0
Set parameter NonConvex to value 2
Gurobi Optimizer version 9.5.2 build v9.5.2rc0 (win64)
Thread count: 4 physical cores, 8 logical processors, using up to 8 threads
Optimize a model with 138 rows, 244 columns and 538 nonzeros
Model fingerprint: 0x9e57a5a4
Model has 85 quadratic objective terms
Model has 85 SOS constraints
Variable types: 222 continuous, 22 integer (22 binary)
Coefficient statistics:
  Matrix range     [2e-02, 2e+02]
  Objective range  [3e-01, 1e+03]
  QObjective range [4e-02, 8e+00]
  Bounds range     [1e+00, 1e+00]
  RHS range        [3e-01, 2e+03]
Presolve removed 3 rows and 3 columns
Presolve time: 0.00s
Presolved: 135 rows, 241 columns, 536 nonzeros
Presolved model has 85 SOS constraint(s)
Presolved model has 85 quadratic objective terms
Variable types: 219 continuous, 22 integer (22 binary)

Root relaxation: objective 4.598721e+05, 325 iterations, 0.00 seconds (0.00 work units)

    Nodes    |    Current Node    |     Objective Bounds      |     Work
 Expl Unexpl |  Obj  Depth IntInf | Incumbent    BestBd   Gap | It/Node Time

     0     0 459872.121    0   12          - 459872.121      -     -    0s
H    0     0                    439276.02622 459872.121  4.69%     -    0s
H    0     0                    452345.26063 459872.121  1.66%     -    0s
     0     0 459854.494    0   12 452345.261 459854.494  1.66%     -    0s
     0     0 459210.454    0   13 452345.261 459210.454  1.52%     -    0s
     0     0 459188.351    0   13 452345.261 459188.351  1.51%     -    0s
     0     0 459188.351    0   13 452345.261 459188.351  1.51%     -    0s
     0     0 459188.351    0   13 452345.261 459188.351  1.51%     -    0s
     0     2 459188.351    0   13 452345.261 459188.351  1.51%     -    0s
H   29    32                    455098.21480 458345.509  0.71%   5.7    0s
H   33    32                    457711.35219 458345.509  0.14%   5.6    0s
*   80    30              15    457937.14412 458188.107  0.05%   3.6    0s
*  115     0              13    457940.32951 457975.534  0.01%   2.9    0s

Cutting planes:
  Implied bound: 1
  MIR: 3

Explored 120 nodes (673 simplex iterations) in 0.24 seconds (0.05 work units)
Thread count was 8 (of 8 available processors)

Solution count 6: 457940 457937 457711 ... 439276

Optimal solution found (tolerance 1.00e-04)
Best objective 4.579403295117e+05, best bound 4.579403295117e+05, gap 0.0000%

User-callback calls 547, time in user-callback 0.01 sec
